n_res = 4;
rc = [ 13, 17, 23, 17 ];
n_tasks = 30;
d = [ 3, 4, 7, 1, 1, 2, 2, 10, 5, 10, 3, 6, 10, 8, 1, 10, 9, 8, 9, 4, 7, 2, 1, 6, 6, 7, 6, 6, 3, 7 ];
rr = [| 0, 3, 2, 0, 0, 0, 0, 0, 0, 0, 2, 0, 4, 0, 5, 0, 1, 0, 2, 0, 3, 5, 5, 5, 0, 8, 0, 3, 0, 0
      | 0, 2, 0, 0, 6, 9, 3, 3, 0, 0, 7, 0, 1, 6, 9, 9, 0, 0, 0, 1, 8, 0, 9, 0, 0, 0, 5, 6, 0, 0
      | 0, 10, 6, 5, 0, 0, 3, 3, 8, 0, 9, 9, 6, 4, 2, 0, 1, 4, 4, 8, 0, 0, 8, 9, 0, 0, 0, 0, 2, 9
      | 1, 0, 2, 3, 10, 8, 0, 0, 0, 5, 0, 0, 0, 9, 0, 0, 10, 0, 5, 8, 0, 0, 0, 0, 8, 5, 0, 9, 2, 0 |];
suc = [ { 2 }, 
        { 1 }, 
        { 4 }, 
        { 3 }, 
        { 6 }, 
        { 5 }, 
        { 8 }, 
        { 7 }, 
        { 10 }, 
        { 9 }, 
        { 12 }, 
        { 11 }, 
        { 14 }, 
        { 13 }, 
        { 16 }, 
        { 15 }, 
        { 18 }, 
        { 17 }, 
        { 20 }, 
        { 19 }, 
        { 22 }, 
        { 21 }, 
        { 24 }, 
        { 23 }, 
        { 26 }, 
        { 25 }, 
        { 28 }, 
        { 27 }, 
        { 30 }, 
        { 29 }]; 
